66 74 158 35 128 107 198 175 196 190 28 127 57 102 110 192 21 184 172 152 69 88 10 89 16 139 138 48 169 97 166 96 104 31 93 161 125 199 155 0 49 168 174 129 33 80 137 119 179 26 23 87 178 12 180 78 146 164 40 83 136 171 14 72 38 187 70 121 122 92 3 154 43 59 52 123 117 61 34 36 195 144 135 18 191 50 118 99 29 143 1 47 140 91 116 177 54 112 86 25 162 130 147 94 55 150 27 11 114 105 103 182 81 186 13 67 32 165 44 98 77 30 56 71 134 160 126 75 79 193 156 173 64 159 85 95 188 142 84 17 19 24 113 163 132 46 20 181 9 141 8 101 115 4 176 2 82 39 5 58 149 63 42 76 90 53 153 62 15 151 157 183 106 68 133 108 124 145 45 51 7 65 37 185 148 167 109 41 22 120 189 100 194 73 111 60 170 6 197 131